58 58
6 4
13 14
16 38
10 19
5 39
11 44
24 33
4 42
19 32
29 11
22 6
28 50
15 18
12 28
18 7
28 17
29 51
19 41
20 58
20 5
2 22
14 21
7 37
25 2
15 10
6 15
21 12
16 30
23 49
9 27
11 31
3 52
14 16
1 25
26 35
5 34
24 24
18 13
22 9
2 3
7 29
3 26
13 20
26 40
27 56
25 55
10 47
8 1
9 36
12 8
23 48
17 54
4 46
1 23
17 57
27 45
21 43
8 53
